[2026-03-24T16:32:12.376Z] Pipeline "set_vm-3-t2_vm-3-t2_s005_g001" → 2026_03_24_16_32_12_set_vm-3-t2_vm-3-t2_s005_g001_max.sol
Set parameter Username
Set parameter LicenseID to value 2796068
Set parameter LogFile to value "gurobi.log"
Using license file /opt/gurobi/gurobi.lic
Academic license - for non-commercial use only - expires 2027-03-23

Gurobi Optimizer version 13.0.1 build v13.0.1rc0 (linux64 - "Ubuntu 24.04.4 LTS")
Copyright (c) 2026, Gurobi Optimization, LLC

Warning: Duplicate section found (read 'binary') - Is a variable name equal to an LP file format keyword?
Warning: Duplicate section found (read 'binary') - Is a variable name equal to an LP file format keyword?
Warning: Duplicate section found (read 'binary') - Is a variable name equal to an LP file format keyword?
Warning: Duplicate section found (read 'binary') - Is a variable name equal to an LP file format keyword?
Warning: Duplicate section found (read 'binary') - Is a variable name equal to an LP file format keyword?
Warning: Duplicate section found (read 'binary') - Is a variable name equal to an LP file format keyword?
Warning: Duplicate section found (read 'binary') - Is a variable name equal to an LP file format keyword?
Warning: Duplicate section found (read 'binary') - Is a variable name equal to an LP file format keyword?
Warning: Duplicate section found (read 'binary') - Is a variable name equal to an LP file format keyword?
Warning: Duplicate section found (read 'binary') - Is a variable name equal to an LP file format keyword?
Warning: Further warnings of this type will be omitted.
Read LP format model from file /root/bgw/data/uploads/2026_03_24_16_32_12_set_vm-3-t2_vm-3-t2_s005_g001_max.lp
Reading time = 0.00 seconds
: 1141 rows, 166 columns, 3441 nonzeros

Using Gurobi shared library /opt/gurobi1301/linux64/lib/libgurobi.so.13.0.1

CPU model: AMD EPYC-Genoa Processor, instruction set [SSE2|AVX|AVX2|AVX512]
Thread count: 16 physical cores, 16 logical processors, using up to 16 threads

Optimize a model with 1141 rows, 166 columns and 3441 nonzeros (Max)
Model fingerprint: 0xe39cdb20
Model has 16 linear objective coefficients
Variable types: 31 continuous, 135 integer (135 binary)
Coefficient statistics:
  Matrix range     [1e+00, 2e+01]
  Objective range  [1e+00, 1e+00]
  Bounds range     [1e+00, 1e+00]
  RHS range        [1e+00, 2e+01]

Found heuristic solution: objective 16.0000000
Presolve removed 206 rows and 46 columns
Presolve time: 0.00s
Presolved: 935 rows, 120 columns, 2865 nonzeros
Variable types: 0 continuous, 120 integer (115 binary)
Found heuristic solution: objective 37.0000000

Root relaxation: objective 8.600000e+01, 43 iterations, 0.00 seconds (0.00 work units)

    Nodes    |    Current Node    |     Objective Bounds      |     Work
 Expl Unexpl |  Obj  Depth IntInf | Incumbent    BestBd   Gap | It/Node Time

     0     0   86.00000    0   14   37.00000   86.00000   132%     -    0s
H    0     0                      44.0000000   86.00000  95.5%     -    0s
     0     0   86.00000    0   15   44.00000   86.00000  95.5%     -    0s
     0     0   86.00000    0   13   44.00000   86.00000  95.5%     -    0s
     0     0   86.00000    0   13   44.00000   86.00000  95.5%     -    0s
     0     0   86.00000    0   12   44.00000   86.00000  95.5%     -    0s
     0     0   86.00000    0   12   44.00000   86.00000  95.5%     -    0s
     0     0   86.00000    0   14   44.00000   86.00000  95.5%     -    0s
     0     0   86.00000    0   14   44.00000   86.00000  95.5%     -    0s
     0     0   86.00000    0   16   44.00000   86.00000  95.5%     -    0s
     0     0   86.00000    0   16   44.00000   86.00000  95.5%     -    0s
     0     0   79.00000    0   16   44.00000   79.00000  79.5%     -    0s
     0     0   79.00000    0   16   44.00000   79.00000  79.5%     -    0s
     0     0   76.84615    0   16   44.00000   76.84615  74.7%     -    0s
     0     0   76.84615    0   16   44.00000   76.84615  74.7%     -    0s
     0     0   76.84615    0   16   44.00000   76.84615  74.7%     -    0s
     0     0   73.97436    0   16   44.00000   73.97436  68.1%     -    0s
     0     0   73.97436    0   16   44.00000   73.97436  68.1%     -    0s
     0     2   73.97436    0   14   44.00000   73.97436  68.1%     -    0s

Cutting planes:
  Gomory: 10
  Lift-and-project: 7
  Cover: 2
  MIR: 3
  Inf proof: 6
  Zero half: 4
  Mod-K: 6

Explored 634 nodes (10352 simplex iterations) in 0.23 seconds (0.18 work units)
Thread count was 16 (of 16 available processors)

Solution count 3: 44 37 16 

Optimal solution found (tolerance 1.00e-04)
Best objective 4.400000000000e+01, best bound 4.400000000000e+01, gap 0.0000%

Wrote result file '/root/bgw/data/results/2026_03_24_16_32_12_set_vm-3-t2_vm-3-t2_s005_g001_max.sol'

